
Gurobi 11.0.1 (mac64[arm]) logging started Sat May  4 01:41:52 2024

Set parameter LogFile to value "../models/model_moo(May 04,0141).log"
Gurobi Optimizer version 11.0.1 build v11.0.1rc0 (mac64[arm] - Darwin 23.2.0 23C71)

CPU model: Apple M2
Thread count: 8 physical cores, 8 logical processors, using up to 8 threads

Optimize a model with 1832 rows, 1436 columns and 4534 nonzeros
Model fingerprint: 0x78b3a35e
Variable types: 1062 continuous, 374 integer (374 binary)
Coefficient statistics:
  Matrix range     [1e+00, 2e+25]
  Objective range  [1e-02, 2e+02]
  Bounds range     [1e+00, 1e+00]
  RHS range        [1e+00, 1e+12]
Warning: Model contains large matrix coefficient range
Warning: Model contains large rhs
         Consider reformulating model or setting NumericFocus parameter
         to avoid numerical issues.

---------------------------------------------------------------------------
Multi-objectives: starting optimization with 2 objectives ... 
---------------------------------------------------------------------------

Multi-objectives: applying initial presolve ...
---------------------------------------------------------------------------

Presolve removed 1337 rows and 708 columns
Presolve time: 0.00s
Presolved: 495 rows, 728 columns, 1477 nonzeros
---------------------------------------------------------------------------

Multi-objectives: optimize objective 1 (objective_re_1) ...
---------------------------------------------------------------------------

Found heuristic solution: objective 0.0000000
Presolve removed 79 rows and 373 columns
Presolve time: 0.00s
Presolved: 416 rows, 355 columns, 1025 nonzeros
Variable types: 0 continuous, 355 integer (355 binary)
Found heuristic solution: objective -898.2544191

Root relaxation: objective -1.127227e+03, 263 iterations, 0.00 seconds (0.00 work units)

    Nodes    |    Current Node    |     Objective Bounds      |     Work
 Expl Unexpl |  Obj  Depth IntInf | Incumbent    BestBd   Gap | It/Node Time

*    0     0               0    -1127.227354 -1127.2274  0.00%     -    0s

Explored 1 nodes (263 simplex iterations) in 0.02 seconds (0.01 work units)
Thread count was 8 (of 8 available processors)

Solution count 2: -1127.23 -898.254 
No other solutions better than -1127.23

Optimal solution found (tolerance 1.00e-04)
Best objective -1.127227353674e+03, best bound -1.127227353674e+03, gap 0.0000%
---------------------------------------------------------------------------

Multi-objectives: optimize objective 2 (objective_cost_2) ...
---------------------------------------------------------------------------


Loaded user MIP start with objective 625

Presolve removed 140 rows and 422 columns
Presolve time: 0.00s
Presolved: 356 rows, 306 columns, 1171 nonzeros
Found heuristic solution: objective -2595.947000
Variable types: 0 continuous, 306 integer (306 binary)

Root relaxation: objective -2.600185e+03, 434 iterations, 0.00 seconds (0.00 work units)

    Nodes    |    Current Node    |     Objective Bounds      |     Work
 Expl Unexpl |  Obj  Depth IntInf | Incumbent    BestBd   Gap | It/Node Time

     0     0 infeasible    0      -2595.9470 -2595.9470  0.00%     -    0s

Explored 1 nodes (434 simplex iterations) in 0.04 seconds (0.02 work units)
Thread count was 8 (of 8 available processors)

Solution count 1: -2595.95 
No other solutions better than -2595.95

Optimal solution found (tolerance 1.00e-04)
Best objective -2.595947000000e+03, best bound -2.595947000000e+03, gap 0.0000%

---------------------------------------------------------------------------
Multi-objectives: solved in 0.04 seconds (0.02 work units), solution count 3

